Welcome to the CBC MILP Solver 
Version: 2.10.12 
Build Date: Aug 20 2024 

command line - /opt/homebrew/bin/cbc computational_data/real_data/lp/penguins_trial_018_margin.lp seconds 10.0 solve solu computational_data/real_data/solutions/penguins_trial_018_margin.sol (default strategy 1)
 CoinLpIO::readLp(): Maximization problem reformulated as minimization
Coin0009I Switching back to maximization to get correct duals etc
seconds was changed from 1e+100 to 10
Continuous objective value is 66.291 - 0.00 seconds
Cgl0003I 0 fixed, 0 tightened bounds, 68 strengthened rows, 0 substitutions
Cgl0003I 0 fixed, 0 tightened bounds, 66 strengthened rows, 0 substitutions
Cgl0003I 0 fixed, 0 tightened bounds, 61 strengthened rows, 0 substitutions
Cgl0003I 0 fixed, 0 tightened bounds, 48 strengthened rows, 0 substitutions
Cgl0003I 0 fixed, 0 tightened bounds, 31 strengthened rows, 0 substitutions
Cgl0003I 0 fixed, 0 tightened bounds, 18 strengthened rows, 0 substitutions
Cgl0003I 0 fixed, 0 tightened bounds, 11 strengthened rows, 0 substitutions
Cgl0003I 0 fixed, 0 tightened bounds, 7 strengthened rows, 0 substitutions
Cgl0003I 0 fixed, 0 tightened bounds, 3 strengthened rows, 0 substitutions
Cgl0004I processed model has 88 rows, 46 columns (46 integer (45 of which binary)) and 1014 elements
Cbc0038I Initial state - 1 integers unsatisfied sum - 0.285714
Cbc0038I Solution found of 66.0053
Cbc0038I Cleaned solution of 66.0053
Cbc0038I Before mini branch and bound, 45 integers at bound fixed and 0 continuous
Cbc0038I Full problem 88 rows 46 columns, reduced to 0 rows 0 columns
Cbc0038I Mini branch and bound did not improve solution (0.01 seconds)
Cbc0038I Round again with cutoff of 66.0339
Cbc0038I Reduced cost fixing fixed 21 variables on major pass 2
Cbc0038I Pass   1: suminf.    0.02858 (1) obj. 66.0339 iterations 26
Cbc0038I Pass   2: suminf.    0.28571 (1) obj. 66.291 iterations 10
Cbc0038I Pass   3: suminf.    0.28571 (1) obj. 66.291 iterations 3
Cbc0038I Pass   4: suminf.    0.02858 (1) obj. 66.0339 iterations 10
Cbc0038I Pass   5: suminf.    0.02858 (1) obj. 66.0339 iterations 10
Cbc0038I Pass   6: suminf.    0.28571 (1) obj. 66.291 iterations 4
Cbc0038I Pass   7: suminf.    0.28571 (1) obj. 66.291 iterations 15
Cbc0038I Pass   8: suminf.    0.28571 (1) obj. 66.291 iterations 8
Cbc0038I Pass   9: suminf.    0.02858 (1) obj. 66.0339 iterations 14
Cbc0038I Pass  10: suminf.    0.02858 (1) obj. 66.0339 iterations 10
Cbc0038I Pass  11: suminf.    0.02858 (1) obj. 66.0339 iterations 12
Cbc0038I Pass  12: suminf.    0.02858 (1) obj. 66.0339 iterations 3
Cbc0038I Pass  13: suminf.    0.28571 (1) obj. 66.291 iterations 10
Cbc0038I Pass  14: suminf.    0.02858 (1) obj. 66.0339 iterations 11
Cbc0038I Pass  15: suminf.    0.28571 (1) obj. 66.291 iterations 3
Cbc0038I Pass  16: suminf.    0.28571 (1) obj. 66.291 iterations 8
Cbc0038I Pass  17: suminf.    0.28571 (1) obj. 66.291 iterations 9
Cbc0038I Pass  18: suminf.    0.28571 (1) obj. 66.291 iterations 7
Cbc0038I Pass  19: suminf.    0.02858 (1) obj. 66.0339 iterations 5
Cbc0038I Pass  20: suminf.    0.28571 (1) obj. 66.291 iterations 3
Cbc0038I Pass  21: suminf.    0.28571 (1) obj. 66.291 iterations 2
Cbc0038I Pass  22: suminf.    0.28571 (1) obj. 66.291 iterations 12
Cbc0038I Pass  23: suminf.    0.28571 (1) obj. 66.291 iterations 9
Cbc0038I Pass  24: suminf.    0.02858 (1) obj. 66.0339 iterations 14
Cbc0038I Pass  25: suminf.    0.28571 (1) obj. 66.291 iterations 2
Cbc0038I Pass  26: suminf.    0.28571 (1) obj. 66.291 iterations 10
Cbc0038I Pass  27: suminf.    0.28571 (1) obj. 66.291 iterations 9
Cbc0038I Pass  28: suminf.    0.28571 (1) obj. 66.291 iterations 10
Cbc0038I Pass  29: suminf.    0.28571 (1) obj. 66.291 iterations 4
Cbc0038I Pass  30: suminf.    0.28571 (1) obj. 66.291 iterations 7
Cbc0038I No solution found this major pass
Cbc0038I Before mini branch and bound, 39 integers at bound fixed and 0 continuous
Cbc0038I Mini branch and bound did not improve solution (0.01 seconds)
Cbc0038I After 0.01 seconds - Feasibility pump exiting with objective of 66.0053 - took 0.00 seconds
Cbc0012I Integer solution of 66.005283 found by feasibility pump after 0 iterations and 0 nodes (0.01 seconds)
Cbc0031I 2 added rows had average density of 18.5
Cbc0013I At root node, 5 cuts changed objective from 66.290997 to 66.005283 in 1 passes
Cbc0014I Cut generator 0 (Probing) - 0 row cuts average 0.0 elements, 0 column cuts (0 active)  in 0.000 seconds - new frequency is -100
Cbc0014I Cut generator 1 (Gomory) - 1 row cuts average 24.0 elements, 0 column cuts (0 active)  in 0.000 seconds - new frequency is 1
Cbc0014I Cut generator 2 (Knapsack) - 2 row cuts average 11.5 elements, 0 column cuts (0 active)  in 0.000 seconds - new frequency is 1
Cbc0014I Cut generator 3 (Clique) - 0 row cuts average 0.0 elements, 0 column cuts (0 active)  in 0.000 seconds - new frequency is -100
Cbc0014I Cut generator 4 (MixedIntegerRounding2) - 0 row cuts average 0.0 elements, 0 column cuts (0 active)  in 0.000 seconds - new frequency is -100
Cbc0014I Cut generator 5 (FlowCover) - 0 row cuts average 0.0 elements, 0 column cuts (0 active)  in 0.000 seconds - new frequency is -100
Cbc0014I Cut generator 6 (TwoMirCuts) - 1 row cuts average 24.0 elements, 0 column cuts (0 active)  in 0.000 seconds - new frequency is -100
Cbc0014I Cut generator 7 (ZeroHalf) - 1 row cuts average 17.0 elements, 0 column cuts (0 active)  in 0.000 seconds - new frequency is -100
Cbc0001I Search completed - best objective 66.00528300000001, took 0 iterations and 0 nodes (0.01 seconds)
Cbc0035I Maximum depth 0, 21 variables fixed on reduced cost
Cuts at root node changed objective from 66.291 to 66.0053
Probing was tried 1 times and created 0 cuts of which 0 were active after adding rounds of cuts (0.000 seconds)
Gomory was tried 1 times and created 1 cuts of which 0 were active after adding rounds of cuts (0.000 seconds)
Knapsack was tried 1 times and created 2 cuts of which 0 were active after adding rounds of cuts (0.000 seconds)
Clique was tried 1 times and created 0 cuts of which 0 were active after adding rounds of cuts (0.000 seconds)
MixedIntegerRounding2 was tried 1 times and created 0 cuts of which 0 were active after adding rounds of cuts (0.000 seconds)
FlowCover was tried 1 times and created 0 cuts of which 0 were active after adding rounds of cuts (0.000 seconds)
TwoMirCuts was tried 1 times and created 1 cuts of which 0 were active after adding rounds of cuts (0.000 seconds)
ZeroHalf was tried 1 times and created 1 cuts of which 0 were active after adding rounds of cuts (0.000 seconds)

Result - Optimal solution found

Objective value:                66.00528300
Enumerated nodes:               0
Total iterations:               0
Time (CPU seconds):             0.01
Time (Wallclock seconds):       0.01

Total time (CPU seconds):       0.01   (Wallclock seconds):       0.01

